certificates/rado_a14_c228_N39.cnf
c Rad2 upper bound instance: x1 + 14*x2 - x3 = 228, interval [1,39]
p cnf 39 216
1 11 17 0
-1 -11 -17 0
1 18 25 0
-1 -18 -25 0
1 19 39 0
-1 -19 -39 0
2 12 17 0
-2 -12 -17 0
2 18 26 0
-2 -18 -26 0
3 13 17 0
-3 -13 -17 0
3 18 27 0
-3 -18 -27 0
4 14 17 0
-4 -14 -17 0
4 18 28 0
-4 -18 -28 0
1 5 16 0
-1 -5 -16 0
5 15 17 0
-5 -15 -17 0
5 18 29 0
-5 -18 -29 0
2 6 16 0
-2 -6 -16 0
6 16 17 0
-6 -16 -17 0
6 18 30 0
-6 -18 -30 0
3 7 16 0
-3 -7 -16 0
7 17 0
-7 -17 0
7 18 31 0
-7 -18 -31 0
4 8 16 0
-4 -8 -16 0
8 17 18 0
-8 -17 -18 0
8 18 32 0
-8 -18 -32 0
5 9 16 0
-5 -9 -16 0
9 17 19 0
-9 -17 -19 0
9 18 33 0
-9 -18 -33 0
6 10 16 0
-6 -10 -16 0
10 17 20 0
-10 -17 -20 0
10 18 34 0
-10 -18 -34 0
7 11 16 0
-7 -11 -16 0
11 17 21 0
-11 -17 -21 0
11 18 35 0
-11 -18 -35 0
8 12 16 0
-8 -12 -16 0
12 17 22 0
-12 -17 -22 0
12 18 36 0
-12 -18 -36 0
9 13 16 0
-9 -13 -16 0
13 17 23 0
-13 -17 -23 0
13 18 37 0
-13 -18 -37 0
10 14 16 0
-10 -14 -16 0
14 17 24 0
-14 -17 -24 0
14 18 38 0
-14 -18 -38 0
11 15 16 0
-11 -15 -16 0
15 17 25 0
-15 -17 -25 0
15 18 39 0
-15 -18 -39 0
12 16 0
-12 -16 0
16 17 26 0
-16 -17 -26 0
13 16 17 0
-13 -16 -17 0
17 27 0
-17 -27 0
14 16 18 0
-14 -16 -18 0
17 18 28 0
-17 -18 -28 0
1 15 19 0
-1 -15 -19 0
15 16 19 0
-15 -16 -19 0
17 19 29 0
-17 -19 -29 0
2 15 20 0
-2 -15 -20 0
16 20 0
-16 -20 0
17 20 30 0
-17 -20 -30 0
3 15 21 0
-3 -15 -21 0
16 17 21 0
-16 -17 -21 0
17 21 31 0
-17 -21 -31 0
4 15 22 0
-4 -15 -22 0
16 18 22 0
-16 -18 -22 0
17 22 32 0
-17 -22 -32 0
5 15 23 0
-5 -15 -23 0
16 19 23 0
-16 -19 -23 0
17 23 33 0
-17 -23 -33 0
6 15 24 0
-6 -15 -24 0
16 20 24 0
-16 -20 -24 0
17 24 34 0
-17 -24 -34 0
7 15 25 0
-7 -15 -25 0
16 21 25 0
-16 -21 -25 0
17 25 35 0
-17 -25 -35 0
8 15 26 0
-8 -15 -26 0
16 22 26 0
-16 -22 -26 0
17 26 36 0
-17 -26 -36 0
9 15 27 0
-9 -15 -27 0
16 23 27 0
-16 -23 -27 0
17 27 37 0
-17 -27 -37 0
10 15 28 0
-10 -15 -28 0
16 24 28 0
-16 -24 -28 0
17 28 38 0
-17 -28 -38 0
11 15 29 0
-11 -15 -29 0
16 25 29 0
-16 -25 -29 0
17 29 39 0
-17 -29 -39 0
12 15 30 0
-12 -15 -30 0
16 26 30 0
-16 -26 -30 0
13 15 31 0
-13 -15 -31 0
16 27 31 0
-16 -27 -31 0
14 15 32 0
-14 -15 -32 0
16 28 32 0
-16 -28 -32 0
1 14 33 0
-1 -14 -33 0
15 33 0
-15 -33 0
16 29 33 0
-16 -29 -33 0
2 14 34 0
-2 -14 -34 0
15 16 34 0
-15 -16 -34 0
16 30 34 0
-16 -30 -34 0
3 14 35 0
-3 -14 -35 0
15 17 35 0
-15 -17 -35 0
16 31 35 0
-16 -31 -35 0
4 14 36 0
-4 -14 -36 0
15 18 36 0
-15 -18 -36 0
16 32 36 0
-16 -32 -36 0
5 14 37 0
-5 -14 -37 0
15 19 37 0
-15 -19 -37 0
16 33 37 0
-16 -33 -37 0
6 14 38 0
-6 -14 -38 0
15 20 38 0
-15 -20 -38 0
16 34 38 0
-16 -34 -38 0
7 14 39 0
-7 -14 -39 0
15 21 39 0
-15 -21 -39 0
16 35 39 0
-16 -35 -39 0
