certificates/rado_a14_c228_N39.drat
16 -36 -39 0
-16 -37 -39 0
-37 -38 -39 0
-18 -38 -39 0
36 18 -38 0
-38 -39 0
d -37 -38 -39 0
18 -39 0
-39 0
17 37 -18 0
-17 -18 0
-18 0
15 0
-33 0
9 0
-27 0
17 0
3 0
-7 0
-5 0
-25 0
-35 0
-19 0
-21 0
-13 0
14 0
31 0
29 0
1 0
16 0
11 0
37 0
-4 0
-24 0
-32 0
0
